Version identifier: 12.10.0.0 | 2019-11-26 | 843d4de
CPXPARAM_WorkMem                                 16384
CPXPARAM_MIP_Limits_TreeMemory                   24576
Tried aggregator 2 times.
Aggregator did 45 substitutions.
Reduced MIP has 199 rows, 240 columns, and 952 nonzeros.
Reduced MIP has 240 binaries, 0 generals, 0 SOSs, and 0 indicators.
Presolve time = 0,00 sec. (0,91 ticks)
Found incumbent of value 652,000000 after 0,00 sec. (1,46 ticks)
Probing time = 0,00 sec. (0,36 ticks)
Tried aggregator 1 time.
Detecting symmetries...
MIP Presolve eliminated 44 rows and 0 columns.
MIP Presolve added 88 rows and 0 columns.
Reduced MIP has 243 rows, 240 columns, and 996 nonzeros.
Reduced MIP has 240 binaries, 0 generals, 0 SOSs, and 0 indicators.
Presolve time = 0,00 sec. (1,19 ticks)
Probing time = 0,00 sec. (0,35 ticks)
Clique table members: 667.
MIP emphasis: balance optimality and feasibility.
MIP search method: dynamic search.
Parallel mode: deterministic, using up to 16 threads.
Root relaxation solution time = 0,00 sec. (0,65 ticks)

        Nodes                                         Cuts/
   Node  Left     Objective  IInf  Best Integer    Best Bound    ItCnt     Gap

*     0+    0                          652,0000        0,0000           100,00%
*     0+    0                          279,0000        0,0000           100,00%
*     0+    0                          275,0000        0,0000           100,00%
      0     0      163,0000    60      275,0000      163,0000       70   40,73%
      0     0      163,0000    60      275,0000     Cuts: 160      125   40,73%
*     0+    0                          269,0000      163,0000            39,41%
      0     0      163,0000    60      269,0000     Cuts: 117      154   39,41%
      0     0      163,0000    60      269,0000     Cuts: 160      215   39,41%
*     0+    0                          263,0000      163,0000            38,02%
      0     2      163,0000   143      263,0000      164,6667      215   37,39%
Elapsed time = 0,08 sec. (34,27 ticks, tree = 0,02 MB, solutions = 5)

Clique cuts applied:  70
Cover cuts applied:  227
Mixed integer rounding cuts applied:  5
Zero-half cuts applied:  6

Root node processing (before b&c):
  Real time             =    0,08 sec. (34,15 ticks)
Parallel b&c, 16 threads:
  Real time             =    0,27 sec. (139,01 ticks)
  Sync time (average)   =    0,10 sec.
  Wait time (average)   =    0,00 sec.
                          ------------
Total (root+branch&cut) =    0,35 sec. (173,16 ticks)
